&DOS
    prefix = 'CoFeMnTi_scf'
    outdir = '/home/washingmachine/Galaxy/CoFeMnTi-1/tmp'
    fildos = 'CoFeMnTi.dos'
    Emin = 10.0
    Emax = 25.0
    DeltaE = 0.01
/
